language Essence 1.3

letting class be
        function(1 --> 7, 2 --> 4, 3 --> 1, 4 --> 3, 5 --> 3, 6 --> 5, 7 --> 7, 8 --> 5, 9 --> 2, 10 --> 1, 11 --> 1,
                 12 --> 5, 13 --> 2, 14 --> 4, 15 --> 5, 16 --> 1, 17 --> 6, 18 --> 5, 19 --> 7, 20 --> 2, 21 --> 6,
                 22 --> 2, 23 --> 1, 24 --> 3)
letting deck_length be 17
letting deck_width be 51
letting length be
        function(1 --> 9, 2 --> 12, 3 --> 13, 4 --> 6, 5 --> 15, 6 --> 3, 7 --> 16, 8 --> 4, 9 --> 14, 10 --> 16,
                 11 --> 7, 12 --> 6, 13 --> 12, 14 --> 17, 15 --> 9, 16 --> 9, 17 --> 1, 18 --> 11, 19 --> 5, 20 --> 9,
                 21 --> 1, 22 --> 5, 23 --> 8, 24 --> 1)
letting n_classes be 7
letting n_containers be 24
letting separation be function()
letting width be
        function(1 --> 1, 2 --> 2, 3 --> 1, 4 --> 1, 5 --> 1, 6 --> 1, 7 --> 1, 8 --> 1, 9 --> 1, 10 --> 12, 11 --> 1,
                 12 --> 2, 13 --> 1, 14 --> 18, 15 --> 1, 16 --> 1, 17 --> 1, 18 --> 1, 19 --> 1, 20 --> 1, 21 --> 1,
                 22 --> 1, 23 --> 1, 24 --> 1)
